(set-info :smt-lib-version 2.6)
(set-logic QF_NIA)
(set-info :source |
Generated by: Cristina Borralleras, Daniel Larraz, Albert Oliveras, Enric Rodriguez-Carbonell, Albert Rubio
Generated on: 2017-04-27
Generator: VeryMax
Application: Termination proving
Target solver: barcelogic
|)
(set-info :license "https://creativecommons.org/licenses/by/4.0/")
(set-info :category "industrial")
(set-info :status unknown)
(declare-fun Nl8arg11 () Int)
(declare-fun Nl8arg21 () Int)
(declare-fun Nl8arg31 () Int)
(declare-fun Nl8arg12 () Int)
(declare-fun Nl8arg22 () Int)
(declare-fun Nl8arg32 () Int)
(declare-fun lam0n0 () Int)
(declare-fun lam0n1 () Int)
(declare-fun lam0n2 () Int)
(declare-fun lam0n3 () Int)
(declare-fun lam0n4 () Int)
(declare-fun lam0n5 () Int)
(declare-fun lam0n6 () Int)
(declare-fun lam0n7 () Int)
(declare-fun lam0n8 () Int)
(declare-fun Nl8CT1 () Int)
(declare-fun Nl8CT2 () Int)
(declare-fun lam1n0 () Int)
(declare-fun lam1n1 () Int)
(declare-fun lam1n2 () Int)
(declare-fun lam1n3 () Int)
(declare-fun lam1n4 () Int)
(declare-fun lam1n5 () Int)
(declare-fun lam1n6 () Int)
(declare-fun lam1n7 () Int)
(declare-fun lam1n8 () Int)
(declare-fun lam2n0 () Int)
(declare-fun lam2n1 () Int)
(declare-fun lam2n2 () Int)
(declare-fun lam2n3 () Int)
(declare-fun lam2n4 () Int)
(declare-fun lam2n5 () Int)
(declare-fun lam2n6 () Int)
(declare-fun lam2n7 () Int)
(declare-fun lam2n8 () Int)
(declare-fun lam3n0 () Int)
(declare-fun lam3n1 () Int)
(declare-fun lam3n2 () Int)
(declare-fun lam3n3 () Int)
(declare-fun lam3n4 () Int)
(declare-fun lam3n5 () Int)
(declare-fun lam4n0 () Int)
(declare-fun lam4n1 () Int)
(declare-fun lam4n2 () Int)
(declare-fun lam4n3 () Int)
(declare-fun lam4n4 () Int)
(declare-fun lam4n5 () Int)
(declare-fun lam5n0 () Int)
(declare-fun lam5n1 () Int)
(declare-fun lam5n2 () Int)
(declare-fun lam5n3 () Int)
(declare-fun lam5n4 () Int)
(declare-fun lam5n5 () Int)
(declare-fun lam6n0 () Int)
(declare-fun lam6n1 () Int)
(declare-fun lam6n2 () Int)
(declare-fun lam6n4 () Int)
(declare-fun lam6n5 () Int)
(declare-fun lam6n3 () Int)
(declare-fun lam7n0 () Int)
(declare-fun lam7n1 () Int)
(declare-fun lam7n2 () Int)
(declare-fun lam7n4 () Int)
(declare-fun lam7n5 () Int)
(declare-fun lam7n3 () Int)
(declare-fun lam8n0 () Int)
(declare-fun lam8n1 () Int)
(declare-fun lam8n2 () Int)
(declare-fun lam8n4 () Int)
(declare-fun lam8n5 () Int)
(declare-fun lam8n3 () Int)
(declare-fun lam9n0 () Int)
(declare-fun lam9n1 () Int)
(declare-fun lam9n2 () Int)
(declare-fun lam9n3 () Int)
(declare-fun lam9n4 () Int)
(declare-fun lam9n5 () Int)
(declare-fun lam9n6 () Int)
(declare-fun lam9n7 () Int)
(declare-fun lam9n8 () Int)
(declare-fun lam9n9 () Int)
(declare-fun lam10n0 () Int)
(declare-fun lam10n1 () Int)
(declare-fun lam10n2 () Int)
(declare-fun lam10n3 () Int)
(declare-fun lam10n4 () Int)
(declare-fun lam10n5 () Int)
(declare-fun lam10n6 () Int)
(declare-fun lam10n7 () Int)
(declare-fun lam10n8 () Int)
(declare-fun lam10n9 () Int)
(declare-fun lam11n0 () Int)
(declare-fun lam11n1 () Int)
(declare-fun lam11n2 () Int)
(declare-fun lam11n3 () Int)
(declare-fun lam11n4 () Int)
(declare-fun lam11n5 () Int)
(declare-fun lam11n6 () Int)
(declare-fun lam11n7 () Int)
(declare-fun lam11n8 () Int)
(declare-fun lam11n9 () Int)
(declare-fun lam12n0 () Int)
(declare-fun lam12n1 () Int)
(declare-fun lam12n2 () Int)
(declare-fun lam12n3 () Int)
(declare-fun lam12n4 () Int)
(declare-fun lam12n5 () Int)
(declare-fun lam12n6 () Int)
(declare-fun lam12n7 () Int)
(declare-fun lam12n8 () Int)
(declare-fun lam12n9 () Int)
(declare-fun arg1 () Int)
(declare-fun undef23 () Int)
(declare-fun undef42 () Int)
(declare-fun undef85 () Int)
(declare-fun undef91 () Int)
(declare-fun undef48 () Int)
(declare-fun arg2 () Int)
(declare-fun undef36 () Int)
(declare-fun arg3 () Int)
(declare-fun lam16n0 () Int)
(declare-fun lam16n1 () Int)
(declare-fun lam16n2 () Int)
(declare-fun lam16n3 () Int)
(declare-fun lam16n4 () Int)
(declare-fun lam16n5 () Int)
(declare-fun lam16n6 () Int)
(declare-fun lam16n7 () Int)
(declare-fun lam16n8 () Int)
(declare-fun lam16n9 () Int)
(declare-fun lam16n10 () Int)
(declare-fun RFN1_CT () Int)
(declare-fun RFN1_arg1 () Int)
(declare-fun RFN1_arg2 () Int)
(declare-fun RFN1_arg3 () Int)
(declare-fun lam20n0 () Int)
(declare-fun lam20n1 () Int)
(declare-fun lam20n2 () Int)
(declare-fun lam20n3 () Int)
(declare-fun lam20n4 () Int)
(declare-fun lam20n5 () Int)
(declare-fun lam24n0 () Int)
(declare-fun lam24n1 () Int)
(declare-fun lam24n2 () Int)
(declare-fun lam24n4 () Int)
(declare-fun lam24n5 () Int)
(declare-fun lam24n3 () Int)
(declare-fun lam14n0 () Int)
(declare-fun lam14n1 () Int)
(declare-fun lam14n2 () Int)
(declare-fun lam14n3 () Int)
(declare-fun lam14n4 () Int)
(declare-fun lam14n5 () Int)
(declare-fun lam14n6 () Int)
(declare-fun lam14n7 () Int)
(declare-fun lam14n8 () Int)
(declare-fun lam14n9 () Int)
(declare-fun lam14n10 () Int)
(declare-fun lam15n0 () Int)
(declare-fun lam15n1 () Int)
(declare-fun lam15n2 () Int)
(declare-fun lam15n3 () Int)
(declare-fun lam15n4 () Int)
(declare-fun lam15n5 () Int)
(declare-fun lam15n6 () Int)
(declare-fun lam15n7 () Int)
(declare-fun lam15n8 () Int)
(declare-fun lam15n9 () Int)
(declare-fun lam15n10 () Int)
(declare-fun lam18n0 () Int)
(declare-fun lam18n1 () Int)
(declare-fun lam18n2 () Int)
(declare-fun lam18n3 () Int)
(declare-fun lam18n4 () Int)
(declare-fun lam18n5 () Int)
(declare-fun lam19n0 () Int)
(declare-fun lam19n1 () Int)
(declare-fun lam19n2 () Int)
(declare-fun lam19n3 () Int)
(declare-fun lam19n4 () Int)
(declare-fun lam19n5 () Int)
(declare-fun lam22n0 () Int)
(declare-fun lam22n1 () Int)
(declare-fun lam22n2 () Int)
(declare-fun lam22n4 () Int)
(declare-fun lam22n5 () Int)
(declare-fun lam22n3 () Int)
(declare-fun lam23n0 () Int)
(declare-fun lam23n1 () Int)
(declare-fun lam23n2 () Int)
(declare-fun lam23n4 () Int)
(declare-fun lam23n5 () Int)
(declare-fun lam23n3 () Int)
(declare-fun lam13n0 () Int)
(declare-fun lam13n1 () Int)
(declare-fun lam13n2 () Int)
(declare-fun lam13n3 () Int)
(declare-fun lam13n4 () Int)
(declare-fun lam13n5 () Int)
(declare-fun lam13n6 () Int)
(declare-fun lam13n7 () Int)
(declare-fun lam13n8 () Int)
(declare-fun lam13n9 () Int)
(declare-fun lam13n10 () Int)
(declare-fun lam17n0 () Int)
(declare-fun lam17n1 () Int)
(declare-fun lam17n2 () Int)
(declare-fun lam17n3 () Int)
(declare-fun lam17n4 () Int)
(declare-fun lam17n5 () Int)
(declare-fun lam21n0 () Int)
(declare-fun lam21n1 () Int)
(declare-fun lam21n2 () Int)
(declare-fun lam21n4 () Int)
(declare-fun lam21n5 () Int)
(declare-fun lam21n3 () Int)
(assert ( and ( <= ( - 13 ) Nl8arg11 ) ( <= Nl8arg11 13 ) ( <= ( - 13 ) Nl8arg21 ) ( <= Nl8arg21 13 ) ( <= ( - 13 ) Nl8arg31 ) ( <= Nl8arg31 13 ) ( <= ( - 13 ) Nl8arg12 ) ( <= Nl8arg12 13 ) ( <= ( - 13 ) Nl8arg22 ) ( <= Nl8arg22 13 ) ( <= ( - 13 ) Nl8arg32 ) ( <= Nl8arg32 13 ) ))
(assert ( or ( and ( >= lam0n0 0 ) ( >= lam0n1 0 ) ( >= lam0n2 0 ) ( >= lam0n3 0 ) ( >= lam0n4 0 ) ( >= lam0n5 0 ) ( >= lam0n6 0 ) ( >= lam0n7 0 ) ( >= lam0n8 0 ) ( > ( + ( * 1 lam0n0 ) ( * 1 lam0n1 ) ( * 1 lam0n2 ) ( * 2 lam0n5 ) ( * 13 lam0n6 ) ( * Nl8CT1 lam0n7 ) ( * Nl8CT2 lam0n8 ) ( - 1 ) ) 0 ) ( = ( + ( * ( - 1 ) lam0n0 ) ( * ( - 1 ) lam0n3 ) ( * Nl8arg11 lam0n7 ) ( * Nl8arg12 lam0n8 ) ) 0 ) ( = ( + ( * 1 lam0n5 ) ( * Nl8arg21 lam0n7 ) ( * Nl8arg22 lam0n8 ) ) 0 ) ( = ( + ( * ( - 1 ) lam0n6 ) ( * Nl8arg31 lam0n7 ) ( * Nl8arg32 lam0n8 ) ) 0 ) ( = ( + ( * ( - 1 ) lam0n1 ) ( * 1 lam0n4 ) ) 0 ) ( = ( * ( - 1 ) lam0n5 ) 0 ) ( = ( + ( * ( - 1 ) lam0n2 ) ( * 1 lam0n3 ) ( * ( - 1 ) lam0n4 ) ) 0 ) ) ( and ( >= lam1n0 0 ) ( >= lam1n1 0 ) ( >= lam1n2 0 ) ( >= lam1n3 0 ) ( >= lam1n4 0 ) ( >= lam1n5 0 ) ( >= lam1n6 0 ) ( >= lam1n7 0 ) ( >= lam1n8 0 ) ( > ( + ( * 1 lam1n0 ) ( * 1 lam1n1 ) ( * 1 lam1n2 ) ( * 2 lam1n5 ) ( * 13 lam1n6 ) ( * Nl8CT1 lam1n7 ) ( * Nl8CT2 lam1n8 ) ( - 1 ( + ( + ( + Nl8CT1 ( * Nl8arg11 0 ) ) ( * Nl8arg21 1 ) ) ( * Nl8arg31 0 ) ) ) ) 0 ) ( = ( + ( * ( - 1 ) lam1n0 ) ( * ( - 1 ) lam1n3 ) ( * Nl8arg11 lam1n7 ) ( * Nl8arg12 lam1n8 ) ) 0 ) ( = ( + ( * 1 lam1n5 ) ( * Nl8arg21 lam1n7 ) ( * Nl8arg22 lam1n8 ) ( - ( + 0 ( * Nl8arg21 1 ) ) ) ) 0 ) ( = ( + ( * ( - 1 ) lam1n6 ) ( * Nl8arg31 lam1n7 ) ( * Nl8arg32 lam1n8 ) ) 0 ) ( = ( + ( * ( - 1 ) lam1n1 ) ( * 1 lam1n4 ) ( - ( + 0 ( * Nl8arg11 1 ) ) ) ) 0 ) ( = ( * ( - 1 ) lam1n5 ) 0 ) ( = ( + ( * ( - 1 ) lam1n2 ) ( * 1 lam1n3 ) ( * ( - 1 ) lam1n4 ) ) 0 ) ) ))
(assert ( or ( and ( >= lam0n0 0 ) ( >= lam0n1 0 ) ( >= lam0n2 0 ) ( >= lam0n3 0 ) ( >= lam0n4 0 ) ( >= lam0n5 0 ) ( >= lam0n6 0 ) ( >= lam0n7 0 ) ( >= lam0n8 0 ) ( > ( + ( * 1 lam0n0 ) ( * 1 lam0n1 ) ( * 1 lam0n2 ) ( * 2 lam0n5 ) ( * 13 lam0n6 ) ( * Nl8CT1 lam0n7 ) ( * Nl8CT2 lam0n8 ) ( - 1 ) ) 0 ) ( = ( + ( * ( - 1 ) lam0n0 ) ( * ( - 1 ) lam0n3 ) ( * Nl8arg11 lam0n7 ) ( * Nl8arg12 lam0n8 ) ) 0 ) ( = ( + ( * 1 lam0n5 ) ( * Nl8arg21 lam0n7 ) ( * Nl8arg22 lam0n8 ) ) 0 ) ( = ( + ( * ( - 1 ) lam0n6 ) ( * Nl8arg31 lam0n7 ) ( * Nl8arg32 lam0n8 ) ) 0 ) ( = ( + ( * ( - 1 ) lam0n1 ) ( * 1 lam0n4 ) ) 0 ) ( = ( * ( - 1 ) lam0n5 ) 0 ) ( = ( + ( * ( - 1 ) lam0n2 ) ( * 1 lam0n3 ) ( * ( - 1 ) lam0n4 ) ) 0 ) ) ( and ( >= lam2n0 0 ) ( >= lam2n1 0 ) ( >= lam2n2 0 ) ( >= lam2n3 0 ) ( >= lam2n4 0 ) ( >= lam2n5 0 ) ( >= lam2n6 0 ) ( >= lam2n7 0 ) ( >= lam2n8 0 ) ( > ( + ( * 1 lam2n0 ) ( * 1 lam2n1 ) ( * 1 lam2n2 ) ( * 2 lam2n5 ) ( * 13 lam2n6 ) ( * Nl8CT1 lam2n7 ) ( * Nl8CT2 lam2n8 ) ( - 1 ( + ( + ( + Nl8CT2 ( * Nl8arg12 0 ) ) ( * Nl8arg22 1 ) ) ( * Nl8arg32 0 ) ) ) ) 0 ) ( = ( + ( * ( - 1 ) lam2n0 ) ( * ( - 1 ) lam2n3 ) ( * Nl8arg11 lam2n7 ) ( * Nl8arg12 lam2n8 ) ) 0 ) ( = ( + ( * 1 lam2n5 ) ( * Nl8arg21 lam2n7 ) ( * Nl8arg22 lam2n8 ) ( - ( + 0 ( * Nl8arg22 1 ) ) ) ) 0 ) ( = ( + ( * ( - 1 ) lam2n6 ) ( * Nl8arg31 lam2n7 ) ( * Nl8arg32 lam2n8 ) ) 0 ) ( = ( + ( * ( - 1 ) lam2n1 ) ( * 1 lam2n4 ) ( - ( + 0 ( * Nl8arg12 1 ) ) ) ) 0 ) ( = ( * ( - 1 ) lam2n5 ) 0 ) ( = ( + ( * ( - 1 ) lam2n2 ) ( * 1 lam2n3 ) ( * ( - 1 ) lam2n4 ) ) 0 ) ) ))
(assert ( or ( and ( >= lam3n0 0 ) ( >= lam3n1 0 ) ( >= lam3n2 0 ) ( >= lam3n3 0 ) ( >= lam3n4 0 ) ( >= lam3n5 0 ) ( > ( + ( * 1 lam3n0 ) ( * 1 lam3n1 ) ( * ( - 11 ) lam3n3 ) ( * Nl8CT1 lam3n4 ) ( * Nl8CT2 lam3n5 ) ( - 1 ) ) 0 ) ( = ( + ( * ( - 1 ) lam3n0 ) ( * ( - 1 ) lam3n2 ) ( * Nl8arg11 lam3n4 ) ( * Nl8arg12 lam3n5 ) ) 0 ) ( = ( + ( * Nl8arg21 lam3n4 ) ( * Nl8arg22 lam3n5 ) ) 0 ) ( = ( + ( * 1 lam3n3 ) ( * Nl8arg31 lam3n4 ) ( * Nl8arg32 lam3n5 ) ) 0 ) ( = ( + ( * ( - 1 ) lam3n1 ) ( * 1 lam3n2 ) ) 0 ) ) ( and ( >= lam4n0 0 ) ( >= lam4n1 0 ) ( >= lam4n2 0 ) ( >= lam4n3 0 ) ( >= lam4n4 0 ) ( >= lam4n5 0 ) ( > ( + ( * 1 lam4n0 ) ( * 1 lam4n1 ) ( * ( - 11 ) lam4n3 ) ( * Nl8CT1 lam4n4 ) ( * Nl8CT2 lam4n5 ) ( - 1 ( + ( + Nl8CT1 ( * Nl8arg11 0 ) ) ( * Nl8arg31 1 ) ) ) ) 0 ) ( = ( + ( * ( - 1 ) lam4n0 ) ( * ( - 1 ) lam4n2 ) ( * Nl8arg11 lam4n4 ) ( * Nl8arg12 lam4n5 ) ) 0 ) ( = ( + ( * Nl8arg21 lam4n4 ) ( * Nl8arg22 lam4n5 ) ( - ( + 0 Nl8arg21 ) ) ) 0 ) ( = ( + ( * 1 lam4n3 ) ( * Nl8arg31 lam4n4 ) ( * Nl8arg32 lam4n5 ) ( - ( + 0 ( * Nl8arg31 1 ) ) ) ) 0 ) ( = ( + ( * ( - 1 ) lam4n1 ) ( * 1 lam4n2 ) ( - ( + 0 ( * Nl8arg11 1 ) ) ) ) 0 ) ) ))
(assert ( or ( and ( >= lam3n0 0 ) ( >= lam3n1 0 ) ( >= lam3n2 0 ) ( >= lam3n3 0 ) ( >= lam3n4 0 ) ( >= lam3n5 0 ) ( > ( + ( * 1 lam3n0 ) ( * 1 lam3n1 ) ( * ( - 11 ) lam3n3 ) ( * Nl8CT1 lam3n4 ) ( * Nl8CT2 lam3n5 ) ( - 1 ) ) 0 ) ( = ( + ( * ( - 1 ) lam3n0 ) ( * ( - 1 ) lam3n2 ) ( * Nl8arg11 lam3n4 ) ( * Nl8arg12 lam3n5 ) ) 0 ) ( = ( + ( * Nl8arg21 lam3n4 ) ( * Nl8arg22 lam3n5 ) ) 0 ) ( = ( + ( * 1 lam3n3 ) ( * Nl8arg31 lam3n4 ) ( * Nl8arg32 lam3n5 ) ) 0 ) ( = ( + ( * ( - 1 ) lam3n1 ) ( * 1 lam3n2 ) ) 0 ) ) ( and ( >= lam5n0 0 ) ( >= lam5n1 0 ) ( >= lam5n2 0 ) ( >= lam5n3 0 ) ( >= lam5n4 0 ) ( >= lam5n5 0 ) ( > ( + ( * 1 lam5n0 ) ( * 1 lam5n1 ) ( * ( - 11 ) lam5n3 ) ( * Nl8CT1 lam5n4 ) ( * Nl8CT2 lam5n5 ) ( - 1 ( + ( + Nl8CT2 ( * Nl8arg12 0 ) ) ( * Nl8arg32 1 ) ) ) ) 0 ) ( = ( + ( * ( - 1 ) lam5n0 ) ( * ( - 1 ) lam5n2 ) ( * Nl8arg11 lam5n4 ) ( * Nl8arg12 lam5n5 ) ) 0 ) ( = ( + ( * Nl8arg21 lam5n4 ) ( * Nl8arg22 lam5n5 ) ( - ( + 0 Nl8arg22 ) ) ) 0 ) ( = ( + ( * 1 lam5n3 ) ( * Nl8arg31 lam5n4 ) ( * Nl8arg32 lam5n5 ) ( - ( + 0 ( * Nl8arg32 1 ) ) ) ) 0 ) ( = ( + ( * ( - 1 ) lam5n1 ) ( * 1 lam5n2 ) ( - ( + 0 ( * Nl8arg12 1 ) ) ) ) 0 ) ) ))
(assert ( or ( and ( >= lam6n0 0 ) ( >= lam6n1 0 ) ( >= lam6n2 0 ) ( >= lam6n4 0 ) ( >= lam6n5 0 ) ( > ( + ( * 1 lam6n0 ) ( * 1 lam6n1 ) ( * ( - 12 ) lam6n3 ) ( * Nl8CT1 lam6n4 ) ( * Nl8CT2 lam6n5 ) ( - 1 ) ) 0 ) ( = ( + ( * ( - 1 ) lam6n0 ) ( * ( - 1 ) lam6n2 ) ( * Nl8arg11 lam6n4 ) ( * Nl8arg12 lam6n5 ) ) 0 ) ( = ( + ( * Nl8arg21 lam6n4 ) ( * Nl8arg22 lam6n5 ) ) 0 ) ( = ( + ( * 1 lam6n3 ) ( * Nl8arg31 lam6n4 ) ( * Nl8arg32 lam6n5 ) ) 0 ) ( = ( + ( * ( - 1 ) lam6n1 ) ( * 1 lam6n2 ) ) 0 ) ) ( and ( >= lam7n0 0 ) ( >= lam7n1 0 ) ( >= lam7n2 0 ) ( >= lam7n4 0 ) ( >= lam7n5 0 ) ( > ( + ( * 1 lam7n0 ) ( * 1 lam7n1 ) ( * ( - 12 ) lam7n3 ) ( * Nl8CT1 lam7n4 ) ( * Nl8CT2 lam7n5 ) ( - 1 ( + ( + Nl8CT1 ( * Nl8arg11 0 ) ) ( * Nl8arg31 13 ) ) ) ) 0 ) ( = ( + ( * ( - 1 ) lam7n0 ) ( * ( - 1 ) lam7n2 ) ( * Nl8arg11 lam7n4 ) ( * Nl8arg12 lam7n5 ) ) 0 ) ( = ( + ( * Nl8arg21 lam7n4 ) ( * Nl8arg22 lam7n5 ) ( - ( + 0 Nl8arg21 ) ) ) 0 ) ( = ( + ( * 1 lam7n3 ) ( * Nl8arg31 lam7n4 ) ( * Nl8arg32 lam7n5 ) ) 0 ) ( = ( + ( * ( - 1 ) lam7n1 ) ( * 1 lam7n2 ) ( - ( + 0 ( * Nl8arg11 1 ) ) ) ) 0 ) ) ))
(assert ( or ( and ( >= lam6n0 0 ) ( >= lam6n1 0 ) ( >= lam6n2 0 ) ( >= lam6n4 0 ) ( >= lam6n5 0 ) ( > ( + ( * 1 lam6n0 ) ( * 1 lam6n1 ) ( * ( - 12 ) lam6n3 ) ( * Nl8CT1 lam6n4 ) ( * Nl8CT2 lam6n5 ) ( - 1 ) ) 0 ) ( = ( + ( * ( - 1 ) lam6n0 ) ( * ( - 1 ) lam6n2 ) ( * Nl8arg11 lam6n4 ) ( * Nl8arg12 lam6n5 ) ) 0 ) ( = ( + ( * Nl8arg21 lam6n4 ) ( * Nl8arg22 lam6n5 ) ) 0 ) ( = ( + ( * 1 lam6n3 ) ( * Nl8arg31 lam6n4 ) ( * Nl8arg32 lam6n5 ) ) 0 ) ( = ( + ( * ( - 1 ) lam6n1 ) ( * 1 lam6n2 ) ) 0 ) ) ( and ( >= lam8n0 0 ) ( >= lam8n1 0 ) ( >= lam8n2 0 ) ( >= lam8n4 0 ) ( >= lam8n5 0 ) ( > ( + ( * 1 lam8n0 ) ( * 1 lam8n1 ) ( * ( - 12 ) lam8n3 ) ( * Nl8CT1 lam8n4 ) ( * Nl8CT2 lam8n5 ) ( - 1 ( + ( + Nl8CT2 ( * Nl8arg12 0 ) ) ( * Nl8arg32 13 ) ) ) ) 0 ) ( = ( + ( * ( - 1 ) lam8n0 ) ( * ( - 1 ) lam8n2 ) ( * Nl8arg11 lam8n4 ) ( * Nl8arg12 lam8n5 ) ) 0 ) ( = ( + ( * Nl8arg21 lam8n4 ) ( * Nl8arg22 lam8n5 ) ( - ( + 0 Nl8arg22 ) ) ) 0 ) ( = ( + ( * 1 lam8n3 ) ( * Nl8arg31 lam8n4 ) ( * Nl8arg32 lam8n5 ) ) 0 ) ( = ( + ( * ( - 1 ) lam8n1 ) ( * 1 lam8n2 ) ( - ( + 0 ( * Nl8arg12 1 ) ) ) ) 0 ) ) ))
(assert ( or ( and ( <= ( + 1 ( * ( - 1 ) arg1 ) ) 0 ) ( <= ( + 1 ( * ( - 1 ) undef23 ) ) 0 ) ( <= ( + 1 ( * ( - 1 ) undef42 ) ) 0 ) ( <= ( + 1 ( * ( - 1 ) undef85 ) ) 0 ) ( <= ( + 1 ( * ( - 1 ) undef91 ) ) 0 ) ( <= ( + ( - 1 ) undef48 ) 0 ) ( <= ( + ( * ( - 1 ) arg1 ) undef23 ) 0 ) ( <= ( + ( * ( - 1 ) undef23 ) undef42 ) 0 ) ( <= ( + ( * ( - 1 ) undef42 ) undef85 ) 0 ) ( <= ( + 13 ( * ( - 1 ) arg2 ) ) 0 ) ( <= ( + ( + ( + ( + Nl8CT1 ( * Nl8arg11 0 ) ) ( * Nl8arg21 0 ) ) ( * Nl8arg31 0 ) ) ( * ( + 0 ( * Nl8arg11 1 ) ) undef85 ) ) 0 ) ( <= ( + ( + ( + ( + Nl8CT2 ( * Nl8arg12 0 ) ) ( * Nl8arg22 0 ) ) ( * Nl8arg32 0 ) ) ( * ( + 0 ( * Nl8arg12 1 ) ) undef85 ) ) 0 ) ( <= ( + 1 ( * ( - 1 ) undef85 ) ) 0 ) ) ( and ( <= ( + 1 ( * ( - 1 ) arg1 ) ) 0 ) ( <= ( + 1 ( * ( - 1 ) undef36 ) ) 0 ) ( <= ( + 1 ( * ( - 1 ) undef42 ) ) 0 ) ( <= ( + 1 ( * ( - 1 ) undef85 ) ) 0 ) ( <= ( + 1 ( * ( - 1 ) undef91 ) ) 0 ) ( <= ( + ( - 1 ) ( * ( - 1 ) arg2 ) undef48 ) 0 ) ( <= ( + ( * ( - 1 ) arg1 ) undef36 ) 0 ) ( <= ( + ( * ( - 1 ) undef36 ) undef42 ) 0 ) ( <= ( + ( * ( - 1 ) undef42 ) undef85 ) 0 ) ( <= ( + 13 ( * ( - 1 ) arg3 ) ) 0 ) ( <= ( + ( + ( + ( + Nl8CT1 ( * Nl8arg11 0 ) ) ( * Nl8arg21 0 ) ) ( * Nl8arg31 0 ) ) ( * ( + 0 ( * Nl8arg11 1 ) ) undef85 ) ) 0 ) ( <= ( + ( + ( + ( + Nl8CT2 ( * Nl8arg12 0 ) ) ( * Nl8arg22 0 ) ) ( * Nl8arg32 0 ) ) ( * ( + 0 ( * Nl8arg12 1 ) ) undef85 ) ) 0 ) ( <= ( + 1 ( * ( - 1 ) undef85 ) ) 0 ) ) ))
(assert ( or ( and ( and ( and ( >= lam16n0 0 ) ( >= lam16n1 0 ) ( >= lam16n2 0 ) ( >= lam16n3 0 ) ( >= lam16n4 0 ) ( >= lam16n5 0 ) ( >= lam16n6 0 ) ( >= lam16n7 0 ) ( >= lam16n8 0 ) ( >= lam16n9 0 ) ( >= lam16n10 0 ) ( > ( + ( * 1 lam16n0 ) ( * 1 lam16n1 ) ( * 1 lam16n2 ) ( * 2 lam16n5 ) ( * 13 lam16n6 ) ( * 50001 lam16n7 ) ( * 50001 lam16n8 ) ( * Nl8CT1 lam16n9 ) ( * Nl8CT2 lam16n10 ) ( - 1 ( - ( + ( + ( + RFN1_CT ( * RFN1_arg1 0 ) ) ( * RFN1_arg2 1 ) ) ( * RFN1_arg3 0 ) ) RFN1_CT ) ) ) 0 ) ( = ( + ( * ( - 1 ) lam16n0 ) ( * ( - 1 ) lam16n3 ) ( * 50000 lam16n7 ) ( * Nl8arg11 lam16n9 ) ( * Nl8arg12 lam16n10 ) ( - ( - RFN1_arg1 ) ) ) 0 ) ( = ( + ( * 1 lam16n5 ) ( * ( - 1 ) lam16n7 ) ( * ( - 1 ) lam16n8 ) ( * Nl8arg21 lam16n9 ) ( * Nl8arg22 lam16n10 ) ( - ( - ( + 0 ( * RFN1_arg2 1 ) ) RFN1_arg2 ) ) ) 0 ) ( = ( + ( * ( - 1 ) lam16n6 ) ( * Nl8arg31 lam16n9 ) ( * Nl8arg32 lam16n10 ) ( - ( - RFN1_arg3 ) ) ) 0 ) ( = ( + ( * ( - 1 ) lam16n1 ) ( * 1 lam16n4 ) ( - ( + 0 ( * RFN1_arg1 1 ) ) ) ) 0 ) ( = ( * ( - 1 ) lam16n5 ) 0 ) ( = ( + ( * ( - 1 ) lam16n2 ) ( * 1 lam16n3 ) ( * ( - 1 ) lam16n4 ) ) 0 ) ) ( and ( >= lam20n0 0 ) ( >= lam20n1 0 ) ( >= lam20n2 0 ) ( >= lam20n3 0 ) ( >= lam20n4 0 ) ( >= lam20n5 0 ) ( > ( + ( * 1 lam20n0 ) ( * 1 lam20n1 ) ( * ( - 11 ) lam20n3 ) ( * Nl8CT1 lam20n4 ) ( * Nl8CT2 lam20n5 ) ( - 1 ( - ( + ( + RFN1_CT ( * RFN1_arg1 0 ) ) ( * RFN1_arg3 1 ) ) RFN1_CT ) ) ) 0 ) ( = ( + ( * ( - 1 ) lam20n0 ) ( * ( - 1 ) lam20n2 ) ( * Nl8arg11 lam20n4 ) ( * Nl8arg12 lam20n5 ) ( - ( - RFN1_arg1 ) ) ) 0 ) ( = ( + ( * Nl8arg21 lam20n4 ) ( * Nl8arg22 lam20n5 ) ( - ( - ( + 0 RFN1_arg2 ) RFN1_arg2 ) ) ) 0 ) ( = ( + ( * 1 lam20n3 ) ( * Nl8arg31 lam20n4 ) ( * Nl8arg32 lam20n5 ) ( - ( - ( + 0 ( * RFN1_arg3 1 ) ) RFN1_arg3 ) ) ) 0 ) ( = ( + ( * ( - 1 ) lam20n1 ) ( * 1 lam20n2 ) ( - ( + 0 ( * RFN1_arg1 1 ) ) ) ) 0 ) ) ( and ( >= lam24n0 0 ) ( >= lam24n1 0 ) ( >= lam24n2 0 ) ( >= lam24n4 0 ) ( >= lam24n5 0 ) ( > ( + ( * 1 lam24n0 ) ( * 1 lam24n1 ) ( * ( - 12 ) lam24n3 ) ( * Nl8CT1 lam24n4 ) ( * Nl8CT2 lam24n5 ) ( - 1 ( - ( + ( + RFN1_CT ( * RFN1_arg1 0 ) ) ( * RFN1_arg3 13 ) ) RFN1_CT ) ) ) 0 ) ( = ( + ( * ( - 1 ) lam24n0 ) ( * ( - 1 ) lam24n2 ) ( * Nl8arg11 lam24n4 ) ( * Nl8arg12 lam24n5 ) ( - ( - RFN1_arg1 ) ) ) 0 ) ( = ( + ( * Nl8arg21 lam24n4 ) ( * Nl8arg22 lam24n5 ) ( - ( - ( + 0 RFN1_arg2 ) RFN1_arg2 ) ) ) 0 ) ( = ( + ( * 1 lam24n3 ) ( * Nl8arg31 lam24n4 ) ( * Nl8arg32 lam24n5 ) ( - ( - RFN1_arg3 ) ) ) 0 ) ( = ( + ( * ( - 1 ) lam24n1 ) ( * 1 lam24n2 ) ( - ( + 0 ( * RFN1_arg1 1 ) ) ) ) 0 ) ) ) ( or ( and ( and ( >= lam14n0 0 ) ( >= lam14n1 0 ) ( >= lam14n2 0 ) ( >= lam14n3 0 ) ( >= lam14n4 0 ) ( >= lam14n5 0 ) ( >= lam14n6 0 ) ( >= lam14n7 0 ) ( >= lam14n8 0 ) ( >= lam14n9 0 ) ( >= lam14n10 0 ) ( > ( + ( * 1 lam14n0 ) ( * 1 lam14n1 ) ( * 1 lam14n2 ) ( * 2 lam14n5 ) ( * 13 lam14n6 ) ( * 50001 lam14n7 ) ( * 50001 lam14n8 ) ( * Nl8CT1 lam14n9 ) ( * Nl8CT2 lam14n10 ) ( - 1 ( - RFN1_CT ) ) ) 0 ) ( = ( + ( * ( - 1 ) lam14n0 ) ( * ( - 1 ) lam14n3 ) ( * 50000 lam14n7 ) ( * Nl8arg11 lam14n9 ) ( * Nl8arg12 lam14n10 ) ( - ( - RFN1_arg1 ) ) ) 0 ) ( = ( + ( * 1 lam14n5 ) ( * ( - 1 ) lam14n7 ) ( * ( - 1 ) lam14n8 ) ( * Nl8arg21 lam14n9 ) ( * Nl8arg22 lam14n10 ) ( - ( - RFN1_arg2 ) ) ) 0 ) ( = ( + ( * ( - 1 ) lam14n6 ) ( * Nl8arg31 lam14n9 ) ( * Nl8arg32 lam14n10 ) ( - ( - RFN1_arg3 ) ) ) 0 ) ( = ( + ( * ( - 1 ) lam14n1 ) ( * 1 lam14n4 ) ) 0 ) ( = ( * ( - 1 ) lam14n5 ) 0 ) ( = ( + ( * ( - 1 ) lam14n2 ) ( * 1 lam14n3 ) ( * ( - 1 ) lam14n4 ) ) 0 ) ) ( and ( >= lam15n0 0 ) ( >= lam15n1 0 ) ( >= lam15n2 0 ) ( >= lam15n3 0 ) ( >= lam15n4 0 ) ( >= lam15n5 0 ) ( >= lam15n6 0 ) ( >= lam15n7 0 ) ( >= lam15n8 0 ) ( >= lam15n9 0 ) ( >= lam15n10 0 ) ( > ( + ( * 1 lam15n0 ) ( * 1 lam15n1 ) ( * 1 lam15n2 ) ( * 2 lam15n5 ) ( * 13 lam15n6 ) ( * 50001 lam15n7 ) ( * 50001 lam15n8 ) ( * Nl8CT1 lam15n9 ) ( * Nl8CT2 lam15n10 ) ( - 1 ( + ( - ( + ( + ( + RFN1_CT ( * RFN1_arg1 0 ) ) ( * RFN1_arg2 1 ) ) ( * RFN1_arg3 0 ) ) RFN1_CT ) 1 ) ) ) 0 ) ( = ( + ( * ( - 1 ) lam15n0 ) ( * ( - 1 ) lam15n3 ) ( * 50000 lam15n7 ) ( * Nl8arg11 lam15n9 ) ( * Nl8arg12 lam15n10 ) ( - ( - RFN1_arg1 ) ) ) 0 ) ( = ( + ( * 1 lam15n5 ) ( * ( - 1 ) lam15n7 ) ( * ( - 1 ) lam15n8 ) ( * Nl8arg21 lam15n9 ) ( * Nl8arg22 lam15n10 ) ( - ( - ( + 0 ( * RFN1_arg2 1 ) ) RFN1_arg2 ) ) ) 0 ) ( = ( + ( * ( - 1 ) lam15n6 ) ( * Nl8arg31 lam15n9 ) ( * Nl8arg32 lam15n10 ) ( - ( - RFN1_arg3 ) ) ) 0 ) ( = ( + ( * ( - 1 ) lam15n1 ) ( * 1 lam15n4 ) ( - ( + 0 ( * RFN1_arg1 1 ) ) ) ) 0 ) ( = ( * ( - 1 ) lam15n5 ) 0 ) ( = ( + ( * ( - 1 ) lam15n2 ) ( * 1 lam15n3 ) ( * ( - 1 ) lam15n4 ) ) 0 ) ) ) ( and ( and ( >= lam18n0 0 ) ( >= lam18n1 0 ) ( >= lam18n2 0 ) ( >= lam18n3 0 ) ( >= lam18n4 0 ) ( >= lam18n5 0 ) ( > ( + ( * 1 lam18n0 ) ( * 1 lam18n1 ) ( * ( - 11 ) lam18n3 ) ( * Nl8CT1 lam18n4 ) ( * Nl8CT2 lam18n5 ) ( - 1 ( - RFN1_CT ) ) ) 0 ) ( = ( + ( * ( - 1 ) lam18n0 ) ( * ( - 1 ) lam18n2 ) ( * Nl8arg11 lam18n4 ) ( * Nl8arg12 lam18n5 ) ( - ( - RFN1_arg1 ) ) ) 0 ) ( = ( + ( * Nl8arg21 lam18n4 ) ( * Nl8arg22 lam18n5 ) ( - ( - RFN1_arg2 ) ) ) 0 ) ( = ( + ( * 1 lam18n3 ) ( * Nl8arg31 lam18n4 ) ( * Nl8arg32 lam18n5 ) ( - ( - RFN1_arg3 ) ) ) 0 ) ( = ( + ( * ( - 1 ) lam18n1 ) ( * 1 lam18n2 ) ) 0 ) ) ( and ( >= lam19n0 0 ) ( >= lam19n1 0 ) ( >= lam19n2 0 ) ( >= lam19n3 0 ) ( >= lam19n4 0 ) ( >= lam19n5 0 ) ( > ( + ( * 1 lam19n0 ) ( * 1 lam19n1 ) ( * ( - 11 ) lam19n3 ) ( * Nl8CT1 lam19n4 ) ( * Nl8CT2 lam19n5 ) ( - 1 ( + ( - ( + ( + RFN1_CT ( * RFN1_arg1 0 ) ) ( * RFN1_arg3 1 ) ) RFN1_CT ) 1 ) ) ) 0 ) ( = ( + ( * ( - 1 ) lam19n0 ) ( * ( - 1 ) lam19n2 ) ( * Nl8arg11 lam19n4 ) ( * Nl8arg12 lam19n5 ) ( - ( - RFN1_arg1 ) ) ) 0 ) ( = ( + ( * Nl8arg21 lam19n4 ) ( * Nl8arg22 lam19n5 ) ( - ( - ( + 0 RFN1_arg2 ) RFN1_arg2 ) ) ) 0 ) ( = ( + ( * 1 lam19n3 ) ( * Nl8arg31 lam19n4 ) ( * Nl8arg32 lam19n5 ) ( - ( - ( + 0 ( * RFN1_arg3 1 ) ) RFN1_arg3 ) ) ) 0 ) ( = ( + ( * ( - 1 ) lam19n1 ) ( * 1 lam19n2 ) ( - ( + 0 ( * RFN1_arg1 1 ) ) ) ) 0 ) ) ) ( and ( and ( >= lam22n0 0 ) ( >= lam22n1 0 ) ( >= lam22n2 0 ) ( >= lam22n4 0 ) ( >= lam22n5 0 ) ( > ( + ( * 1 lam22n0 ) ( * 1 lam22n1 ) ( * ( - 12 ) lam22n3 ) ( * Nl8CT1 lam22n4 ) ( * Nl8CT2 lam22n5 ) ( - 1 ( - RFN1_CT ) ) ) 0 ) ( = ( + ( * ( - 1 ) lam22n0 ) ( * ( - 1 ) lam22n2 ) ( * Nl8arg11 lam22n4 ) ( * Nl8arg12 lam22n5 ) ( - ( - RFN1_arg1 ) ) ) 0 ) ( = ( + ( * Nl8arg21 lam22n4 ) ( * Nl8arg22 lam22n5 ) ( - ( - RFN1_arg2 ) ) ) 0 ) ( = ( + ( * 1 lam22n3 ) ( * Nl8arg31 lam22n4 ) ( * Nl8arg32 lam22n5 ) ( - ( - RFN1_arg3 ) ) ) 0 ) ( = ( + ( * ( - 1 ) lam22n1 ) ( * 1 lam22n2 ) ) 0 ) ) ( and ( >= lam23n0 0 ) ( >= lam23n1 0 ) ( >= lam23n2 0 ) ( >= lam23n4 0 ) ( >= lam23n5 0 ) ( > ( + ( * 1 lam23n0 ) ( * 1 lam23n1 ) ( * ( - 12 ) lam23n3 ) ( * Nl8CT1 lam23n4 ) ( * Nl8CT2 lam23n5 ) ( - 1 ( + ( - ( + ( + RFN1_CT ( * RFN1_arg1 0 ) ) ( * RFN1_arg3 13 ) ) RFN1_CT ) 1 ) ) ) 0 ) ( = ( + ( * ( - 1 ) lam23n0 ) ( * ( - 1 ) lam23n2 ) ( * Nl8arg11 lam23n4 ) ( * Nl8arg12 lam23n5 ) ( - ( - RFN1_arg1 ) ) ) 0 ) ( = ( + ( * Nl8arg21 lam23n4 ) ( * Nl8arg22 lam23n5 ) ( - ( - ( + 0 RFN1_arg2 ) RFN1_arg2 ) ) ) 0 ) ( = ( + ( * 1 lam23n3 ) ( * Nl8arg31 lam23n4 ) ( * Nl8arg32 lam23n5 ) ( - ( - RFN1_arg3 ) ) ) 0 ) ( = ( + ( * ( - 1 ) lam23n1 ) ( * 1 lam23n2 ) ( - ( + 0 ( * RFN1_arg1 1 ) ) ) ) 0 ) ) ) ) ) ( or ( and ( >= lam13n0 0 ) ( >= lam13n1 0 ) ( >= lam13n2 0 ) ( >= lam13n3 0 ) ( >= lam13n4 0 ) ( >= lam13n5 0 ) ( >= lam13n6 0 ) ( >= lam13n7 0 ) ( >= lam13n8 0 ) ( >= lam13n9 0 ) ( >= lam13n10 0 ) ( > ( + ( * 1 lam13n0 ) ( * 1 lam13n1 ) ( * 1 lam13n2 ) ( * 2 lam13n5 ) ( * 13 lam13n6 ) ( * 50001 lam13n7 ) ( * 50001 lam13n8 ) ( * Nl8CT1 lam13n9 ) ( * Nl8CT2 lam13n10 ) ( - 1 ) ) 0 ) ( = ( + ( * ( - 1 ) lam13n0 ) ( * ( - 1 ) lam13n3 ) ( * 50000 lam13n7 ) ( * Nl8arg11 lam13n9 ) ( * Nl8arg12 lam13n10 ) ) 0 ) ( = ( + ( * 1 lam13n5 ) ( * ( - 1 ) lam13n7 ) ( * ( - 1 ) lam13n8 ) ( * Nl8arg21 lam13n9 ) ( * Nl8arg22 lam13n10 ) ) 0 ) ( = ( + ( * ( - 1 ) lam13n6 ) ( * Nl8arg31 lam13n9 ) ( * Nl8arg32 lam13n10 ) ) 0 ) ( = ( + ( * ( - 1 ) lam13n1 ) ( * 1 lam13n4 ) ) 0 ) ( = ( * ( - 1 ) lam13n5 ) 0 ) ( = ( + ( * ( - 1 ) lam13n2 ) ( * 1 lam13n3 ) ( * ( - 1 ) lam13n4 ) ) 0 ) ) ( and ( >= lam17n0 0 ) ( >= lam17n1 0 ) ( >= lam17n2 0 ) ( >= lam17n3 0 ) ( >= lam17n4 0 ) ( >= lam17n5 0 ) ( > ( + ( * 1 lam17n0 ) ( * 1 lam17n1 ) ( * ( - 11 ) lam17n3 ) ( * Nl8CT1 lam17n4 ) ( * Nl8CT2 lam17n5 ) ( - 1 ) ) 0 ) ( = ( + ( * ( - 1 ) lam17n0 ) ( * ( - 1 ) lam17n2 ) ( * Nl8arg11 lam17n4 ) ( * Nl8arg12 lam17n5 ) ) 0 ) ( = ( + ( * Nl8arg21 lam17n4 ) ( * Nl8arg22 lam17n5 ) ) 0 ) ( = ( + ( * 1 lam17n3 ) ( * Nl8arg31 lam17n4 ) ( * Nl8arg32 lam17n5 ) ) 0 ) ( = ( + ( * ( - 1 ) lam17n1 ) ( * 1 lam17n2 ) ) 0 ) ) ( and ( >= lam21n0 0 ) ( >= lam21n1 0 ) ( >= lam21n2 0 ) ( >= lam21n4 0 ) ( >= lam21n5 0 ) ( > ( + ( * 1 lam21n0 ) ( * 1 lam21n1 ) ( * ( - 12 ) lam21n3 ) ( * Nl8CT1 lam21n4 ) ( * Nl8CT2 lam21n5 ) ( - 1 ) ) 0 ) ( = ( + ( * ( - 1 ) lam21n0 ) ( * ( - 1 ) lam21n2 ) ( * Nl8arg11 lam21n4 ) ( * Nl8arg12 lam21n5 ) ) 0 ) ( = ( + ( * Nl8arg21 lam21n4 ) ( * Nl8arg22 lam21n5 ) ) 0 ) ( = ( + ( * 1 lam21n3 ) ( * Nl8arg31 lam21n4 ) ( * Nl8arg32 lam21n5 ) ) 0 ) ( = ( + ( * ( - 1 ) lam21n1 ) ( * 1 lam21n2 ) ) 0 ) ) ) ))
(check-sat)
(exit)
